[VALIDATOR STDOUT]
Checking plan: /home/jfan5/Safety-gen/runs/benchmark/optic/ferry_20260205_113042/ferry/optic_results/ferry-l20-c11-s20001.plan
Plan executed successfully - checking goal
Plan valid
Final value: 47 

Successful plans:
Value: 47
 /home/jfan5/Safety-gen/runs/benchmark/optic/ferry_20260205_113042/ferry/optic_results/ferry-l20-c11-s20001.plan 47
